mapa = [|
         9,9,9,9,9,9,9|
         9,9,0,0,0,9,9|
         9,9,1,0,1,9,9|
         9,9,8,8,8,9,9|
         9,0,0,1,0,0,9|
         9,0,0,0,0,0,9|
         9,9,9,9,9,9,9|];
dimx = 7;
dimy = 7;
filav = 6;
colav = 4;
